p wcnf 119 143 144 
1 -65 6 0 
1 118 23 0 
1 19 -110 0 
1 -63 23 0 
1 59 -57 0 
1 -30 -57 0 
1 76 -3 0 
1 -50 46 0 
1 -110 -71 0 
1 -117 -83 0 
1 90 -4 0 
1 -87 13 0 
1 4 -103 0 
1 10 81 0 
1 100 54 0 
1 -33 83 0 
1 -87 -39 0 
1 -101 -21 0 
1 63 -70 0 
1 -78 99 0 
1 -87 -28 0 
1 -118 -43 0 
1 -103 117 0 
1 -8 -39 0 
1 103 25 0 
1 49 1 0 
1 41 -17 0 
1 -108 -51 0 
1 8 52 0 
1 65 -20 0 
1 -112 20 0 
1 -37 91 0 
1 3 -16 0 
1 5 69 0 
1 -105 -98 0 
1 21 -88 0 
1 -5 -76 0 
1 -45 -18 0 
1 -61 90 0 
1 106 -27 0 
1 57 63 0 
1 -116 15 0 
1 46 -70 0 
1 71 -19 0 
1 3 89 0 
1 -94 -22 0 
1 -54 51 0 
1 96 68 0 
1 4 -67 0 
1 -103 99 0 
1 -43 36 0 
1 -55 18 0 
1 -16 64 0 
1 -18 -101 0 
1 -15 -101 0 
1 -63 -56 0 
1 -112 -2 0 
1 -53 -91 0 
1 -57 -58 0 
1 -58 89 0 
1 -15 -88 0 
1 -92 50 0 
1 -71 -16 0 
1 -53 -60 0 
1 -85 67 0 
1 -33 -111 0 
1 89 97 0 
1 -116 -74 0 
1 -96 -61 0 
1 21 -90 0 
1 34 63 0 
1 -65 80 0 
1 12 -24 0 
1 93 45 0 
1 -19 35 0 
1 -65 107 0 
1 -85 -48 0 
1 -4 19 0 
1 79 -3 0 
1 -24 -35 0 
1 114 90 0 
1 -34 42 0 
1 19 -67 0 
1 -97 -85 0 
1 68 -100 0 
1 69 -103 0 
1 -18 -49 0 
1 61 -62 0 
1 14 -55 0 
1 109 6 0 
1 82 -93 0 
1 -86 -75 0 
1 -16 -46 0 
1 -43 -88 0 
1 33 -68 0 
1 71 -43 0 
1 -37 -64 0 
1 -13 -112 0 
1 64 19 0 
1 -34 -114 0 
1 17 67 0 
1 -36 99 0 
1 41 15 0 
1 35 -104 0 
1 -30 29 0 
1 71 -67 0 
1 5 73 0 
1 -41 84 0 
1 -104 102 0 
1 -89 -117 0 
1 29 -118 0 
1 -102 32 0 
1 35 -19 0 
1 -34 118 0 
1 93 -27 0 
1 16 -57 0 
1 -53 -5 0 
1 60 -3 0 
1 -98 76 0 
1 75 24 0 
1 18 42 0 
1 -18 -71 0 
1 8 -87 0 
1 -43 -67 0 
1 -18 64 0 
1 -55 -42 0 
1 -42 30 0 
1 12 -19 0 
1 96 -72 0 
1 78 -96 0 
1 88 10 0 
1 113 45 0 
1 31 -71 0 
1 -113 104 0 
1 -79 91 0 
1 89 18 0 
1 1 -119 0 
1 -2 -114 0 
1 -51 100 0 
1 -116 90 0 
1 49 55 0 
1 -64 28 0 
1 84 -50 0 
